p cnf 15 31
-15 -14 2 0
-15 -13 2 0
-15 -10 8 0
15 10 -7 0
-15 8 1 0
15 -7 -2 0
15 -6 4 0
14 13 7 0
14 -12 6 0
-14 9 2 0
14 9 -1 0
-13 -12 3 0
-13 -8 2 0
-13 -7 2 0
-13 -6 3 0
13 -4 2 0
-12 8 4 0
12 6 4 0
12 6 3 0
-12 5 -4 0
-12 -5 3 0
11 10 -2 0
-11 6 -4 0
-11 -6 -2 0
-10 -9 8 0
10 -8 -3 0
10 7 2 0
7 -2 -1 0
-7 -2 1 0
6 3 2 0
-4 -3 -2 0
